100
32
23
8
28
2
13
8
16
7
11
2
1
14
13
6
10
12
11
32
8
8
6
7
25
8
24
11
9
10
10
18
3
2
1
6
25
1
5
2
6
19
3
2
19
17
1
18
1
1
10
2
2
18
13
18
4
10
8
2
4
4
3
22
28
3
4
4
1
1
3
22
17
13
2
8
1
22
7
30
19
18
17
7
3
1
17
3
1
3
5
1
3
1
2
6
3
23
5
4
5
4